c instance by G2
c solution = 110010101011010000001
c Known solution cost is 1177 
p cnf 21 30
w 78 4 90 58 63 63 55 38 79 88 6 3 86 38 99 49 74 62 73 42 29
6 -20 4 0
19 13 21 0
3 -2 14 0
5 21 -14 0
19 -18 16 0
-14 -12 -10 0
-10 2 7 0
-18 -8 6 0
-2 7 -14 0
-12 17 -4 0
-20 12 -3 0
-3 15 -21 0
16 13 -17 0
-15 20 -9 0
17 -13 -9 0
-4 -5 -6 0
17 -12 -4 0
4 6 -16 0
5 20 -2 0
-21 9 19 0
-19 -9 -1 0
-20 -2 -13 0
1 -2 -5 0
16 19 -8 0
13 20 -18 0
11 -14 19 0
-17 2 9 0
16 -6 17 0
2 -11 15 0
12 19 13 0
